;; translated from ./ctigar/gulwani_cegar1.c.vmt
;; original benchmark available at: https://es-static.fbk.eu/people/griggio/ic3ia/index.html
;; author: Alberto Griggio <griggio@fbk.eu>
(set-logic HORN)
(declare-fun state (Bool Bool Bool Bool Bool Int Int) Bool)
(assert (forall ((|.s.2| Bool) (|.s.0| Bool) (|.s.1| Bool) (|.s.1.next| Bool) (|.s.0.next| Bool) (|.s.2.next| Bool) (|.s.3.next| Bool) (|.s.4.next| Bool) (|main.x.next| Int) (|main.x| Int) (|main.y.next| Int) (|main.y| Int) (|.inputVar.0| Int) (|.s.4| Bool) (|.s.3| Bool)) (=> (let ((.def_20 (not .s.4)))
(let ((.def_17 (not .s.3)))
(let ((.def_14 (not .s.2)))
(let ((.def_10 (not .s.1)))
(let ((.def_12 (and .def_10 .s.0)))
(let ((.def_15 (and .def_12 .def_14)))
(let ((.def_18 (and .def_15 .def_17)))
(let ((.def_21 (and .def_18 .def_20)))
.def_21)))))))) (state |.s.1| |.s.0| |.s.2| |.s.3| |.s.4| |main.x| |main.y|))))
(assert (forall ((|.s.2| Bool) (|.s.0| Bool) (|.s.1| Bool) (|.s.1.next| Bool) (|.s.0.next| Bool) (|.s.2.next| Bool) (|.s.3.next| Bool) (|.s.4.next| Bool) (|main.x.next| Int) (|main.x| Int) (|main.y.next| Int) (|main.y| Int) (|.inputVar.0| Int) (|.s.4| Bool) (|.s.3| Bool)) (=> (and (state |.s.1| |.s.0| |.s.2| |.s.3| |.s.4| |main.x| |main.y|) (let ((.def_22 (not .s.0)))
(let ((.def_10 (not .s.1)))
(let ((.def_62 (and .def_10 .def_22)))
(let ((.def_14 (not .s.2)))
(let ((.def_104 (and .def_14 .def_62)))
(let ((.def_17 (not .s.3)))
(let ((.def_105 (and .def_17 .def_104)))
(let ((.def_20 (not .s.4)))
(let ((.def_286 (and .def_20 .def_105)))
(let ((.def_287 (not .def_286)))
(let ((.def_54 (not .s.1.next)))
(let ((.def_29 (not .s.0.next)))
(let ((.def_55 (and .def_29 .def_54)))
(let ((.def_53 (not .s.2.next)))
(let ((.def_56 (and .def_53 .def_55)))
(let ((.def_35 (not .s.3.next)))
(let ((.def_57 (and .def_35 .def_56)))
(let ((.def_52 (not .s.4.next)))
(let ((.def_58 (and .def_52 .def_57)))
(let ((.def_41 (= main.x main.x.next)))
(let ((.def_59 (and .def_41 .def_58)))
(let ((.def_45 (= main.y main.y.next)))
(let ((.def_60 (and .def_45 .def_59)))
(let ((.def_288 (or .def_60 .def_287)))
(let ((.def_89 (and .s.0.next .s.1.next)))
(let ((.def_90 (and .def_53 .def_89)))
(let ((.def_91 (and .def_35 .def_90)))
(let ((.def_282 (and .def_52 .def_91)))
(let ((.def_283 (and .def_41 .def_282)))
(let ((.def_284 (and .def_45 .def_283)))
(let ((.def_272 (<= 0 main.x)))
(let ((.def_12 (and .def_10 .s.0)))
(let ((.def_15 (and .def_12 .def_14)))
(let ((.def_18 (and .def_15 .def_17)))
(let ((.def_21 (and .def_18 .def_20)))
(let ((.def_280 (and .def_21 .def_272)))
(let ((.def_281 (not .def_280)))
(let ((.def_285 (or .def_281 .def_284)))
(let ((.def_289 (and .def_285 .def_288)))
(let ((.def_31 (and .def_29 .s.1.next)))
(let ((.def_98 (and .def_31 .def_53)))
(let ((.def_99 (and .def_35 .def_98)))
(let ((.def_276 (and .def_52 .def_99)))
(let ((.def_277 (and .def_41 .def_276)))
(let ((.def_278 (and .def_45 .def_277)))
(let ((.def_273 (not .def_272)))
(let ((.def_274 (and .def_21 .def_273)))
(let ((.def_275 (not .def_274)))
(let ((.def_279 (or .def_275 .def_278)))
(let ((.def_290 (and .def_279 .def_289)))
(let ((.def_23 (and .s.1 .def_22)))
(let ((.def_85 (and .def_14 .def_23)))
(let ((.def_86 (and .def_17 .def_85)))
(let ((.def_269 (and .def_20 .def_86)))
(let ((.def_270 (not .def_269)))
(let ((.def_271 (or .def_60 .def_270)))
(let ((.def_291 (and .def_271 .def_290)))
(let ((.def_67 (and .s.0.next .def_54)))
(let ((.def_68 (and .s.2.next .def_67)))
(let ((.def_69 (and .def_35 .def_68)))
(let ((.def_265 (and .def_52 .def_69)))
(let ((.def_266 (and .def_41 .def_265)))
(let ((.def_267 (and .def_45 .def_266)))
(let ((.def_255 (<= main.x 2)))
(let ((.def_74 (and .s.1 .s.0)))
(let ((.def_75 (and .def_14 .def_74)))
(let ((.def_76 (and .def_17 .def_75)))
(let ((.def_254 (and .def_20 .def_76)))
(let ((.def_263 (and .def_254 .def_255)))
(let ((.def_264 (not .def_263)))
(let ((.def_268 (or .def_264 .def_267)))
(let ((.def_292 (and .def_268 .def_291)))
(let ((.def_79 (and .s.2.next .def_55)))
(let ((.def_80 (and .def_35 .def_79)))
(let ((.def_259 (and .def_52 .def_80)))
(let ((.def_260 (and .def_41 .def_259)))
(let ((.def_261 (and .def_45 .def_260)))
(let ((.def_256 (not .def_255)))
(let ((.def_257 (and .def_254 .def_256)))
(let ((.def_258 (not .def_257)))
(let ((.def_262 (or .def_258 .def_261)))
(let ((.def_293 (and .def_262 .def_292)))
(let ((.def_63 (and .s.2 .def_62)))
(let ((.def_64 (and .def_17 .def_63)))
(let ((.def_251 (and .def_20 .def_64)))
(let ((.def_252 (not .def_251)))
(let ((.def_253 (or .def_60 .def_252)))
(let ((.def_294 (and .def_253 .def_293)))
(let ((.def_139 (and .s.2.next .def_89)))
(let ((.def_246 (and .def_35 .def_139)))
(let ((.def_247 (and .def_52 .def_246)))
(let ((.def_248 (and .def_41 .def_247)))
(let ((.def_249 (and .def_45 .def_248)))
(let ((.def_48 (and .def_12 .s.2)))
(let ((.def_49 (and .def_17 .def_48)))
(let ((.def_237 (and .def_20 .def_49)))
(let ((.def_151 (<= 0 main.y)))
(let ((.def_244 (and .def_151 .def_237)))
(let ((.def_245 (not .def_244)))
(let ((.def_250 (or .def_245 .def_249)))
(let ((.def_295 (and .def_250 .def_294)))
(let ((.def_33 (and .def_31 .s.2.next)))
(let ((.def_36 (and .def_33 .def_35)))
(let ((.def_240 (and .def_36 .def_52)))
(let ((.def_241 (and .def_41 .def_240)))
(let ((.def_242 (and .def_45 .def_241)))
(let ((.def_152 (not .def_151)))
(let ((.def_238 (and .def_152 .def_237)))
(let ((.def_239 (not .def_238)))
(let ((.def_243 (or .def_239 .def_242)))
(let ((.def_296 (and .def_243 .def_295)))
(let ((.def_24 (and .s.2 .def_23)))
(let ((.def_25 (and .def_17 .def_24)))
(let ((.def_234 (and .def_20 .def_25)))
(let ((.def_235 (not .def_234)))
(let ((.def_236 (or .def_60 .def_235)))
(let ((.def_297 (and .def_236 .def_296)))
(let ((.def_222 (<= main.y 2)))
(let ((.def_121 (and .s.2 .def_74)))
(let ((.def_220 (and .def_17 .def_121)))
(let ((.def_221 (and .def_20 .def_220)))
(let ((.def_231 (and .def_221 .def_222)))
(let ((.def_232 (not .def_231)))
(let ((.def_112 (and .def_53 .def_67)))
(let ((.def_166 (and .s.3.next .def_112)))
(let ((.def_167 (and .def_52 .def_166)))
(let ((.def_168 (and .def_41 .def_167)))
(let ((.def_169 (and .def_45 .def_168)))
(let ((.def_233 (or .def_169 .def_232)))
(let ((.def_298 (and .def_233 .def_297)))
(let ((.def_226 (and .s.3.next .def_56)))
(let ((.def_227 (and .def_52 .def_226)))
(let ((.def_228 (and .def_41 .def_227)))
(let ((.def_229 (and .def_45 .def_228)))
(let ((.def_223 (not .def_222)))
(let ((.def_224 (and .def_221 .def_223)))
(let ((.def_225 (not .def_224)))
(let ((.def_230 (or .def_225 .def_229)))
(let ((.def_299 (and .def_230 .def_298)))
(let ((.def_216 (and .s.3 .def_104)))
(let ((.def_217 (and .def_20 .def_216)))
(let ((.def_218 (not .def_217)))
(let ((.def_219 (or .def_60 .def_218)))
(let ((.def_300 (and .def_219 .def_299)))
(let ((.def_211 (and .s.3.next .def_68)))
(let ((.def_212 (and .def_52 .def_211)))
(let ((.def_213 (and .def_41 .def_212)))
(let ((.def_214 (and .def_45 .def_213)))
(let ((.def_200 (= .inputVar.0 0)))
(let ((.def_208 (not .def_200)))
(let ((.def_197 (and .def_15 .s.3)))
(let ((.def_198 (and .def_20 .def_197)))
(let ((.def_209 (and .def_198 .def_208)))
(let ((.def_210 (not .def_209)))
(let ((.def_215 (or .def_210 .def_214)))
(let ((.def_301 (and .def_215 .def_300)))
(let ((.def_203 (and .s.3.next .def_98)))
(let ((.def_204 (and .def_52 .def_203)))
(let ((.def_205 (and .def_41 .def_204)))
(let ((.def_206 (and .def_45 .def_205)))
(let ((.def_201 (and .def_198 .def_200)))
(let ((.def_202 (not .def_201)))
(let ((.def_207 (or .def_202 .def_206)))
(let ((.def_302 (and .def_207 .def_301)))
(let ((.def_192 (and .s.3.next .def_90)))
(let ((.def_193 (and .def_52 .def_192)))
(let ((.def_189 (* (- 1) main.x.next)))
(let ((.def_190 (+ main.x .def_189)))
(let ((.def_191 (= .def_190 (- 2))))
(let ((.def_194 (and .def_191 .def_193)))
(let ((.def_195 (and .def_45 .def_194)))
(let ((.def_186 (and .s.3 .def_85)))
(let ((.def_187 (and .def_20 .def_186)))
(let ((.def_188 (not .def_187)))
(let ((.def_196 (or .def_188 .def_195)))
(let ((.def_303 (and .def_196 .def_302)))
(let ((.def_181 (and .s.3.next .def_79)))
(let ((.def_182 (and .def_52 .def_181)))
(let ((.def_176 (* (- 1) main.y.next)))
(let ((.def_177 (+ main.y .def_176)))
(let ((.def_180 (= .def_177 (- 2))))
(let ((.def_183 (and .def_180 .def_182)))
(let ((.def_184 (and .def_41 .def_183)))
(let ((.def_171 (and .s.3 .def_75)))
(let ((.def_172 (and .def_20 .def_171)))
(let ((.def_173 (not .def_172)))
(let ((.def_185 (or .def_173 .def_184)))
(let ((.def_304 (and .def_185 .def_303)))
(let ((.def_163 (and .s.3 .def_63)))
(let ((.def_164 (and .def_20 .def_163)))
(let ((.def_165 (not .def_164)))
(let ((.def_170 (or .def_165 .def_169)))
(let ((.def_305 (and .def_170 .def_304)))
(let ((.def_158 (and .def_33 .s.3.next)))
(let ((.def_159 (and .def_52 .def_158)))
(let ((.def_160 (and .def_41 .def_159)))
(let ((.def_161 (and .def_45 .def_160)))
(let ((.def_149 (and .s.3 .def_48)))
(let ((.def_150 (and .def_20 .def_149)))
(let ((.def_156 (and .def_150 .def_151)))
(let ((.def_157 (not .def_156)))
(let ((.def_162 (or .def_157 .def_161)))
(let ((.def_306 (and .def_162 .def_305)))
(let ((.def_153 (and .def_150 .def_152)))
(let ((.def_154 (not .def_153)))
(let ((.def_70 (and .s.4.next .def_69)))
(let ((.def_71 (and .def_41 .def_70)))
(let ((.def_72 (and .def_45 .def_71)))
(let ((.def_155 (or .def_72 .def_154)))
(let ((.def_307 (and .def_155 .def_306)))
(let ((.def_136 (<= main.y 0)))
(let ((.def_145 (not .def_136)))
(let ((.def_133 (and .s.3 .def_24)))
(let ((.def_134 (and .def_20 .def_133)))
(let ((.def_146 (and .def_134 .def_145)))
(let ((.def_147 (not .def_146)))
(let ((.def_81 (and .s.4.next .def_80)))
(let ((.def_82 (and .def_41 .def_81)))
(let ((.def_83 (and .def_45 .def_82)))
(let ((.def_148 (or .def_83 .def_147)))
(let ((.def_308 (and .def_148 .def_307)))
(let ((.def_140 (and .s.3.next .def_139)))
(let ((.def_141 (and .def_52 .def_140)))
(let ((.def_142 (and .def_41 .def_141)))
(let ((.def_143 (and .def_45 .def_142)))
(let ((.def_137 (and .def_134 .def_136)))
(let ((.def_138 (not .def_137)))
(let ((.def_144 (or .def_138 .def_143)))
(let ((.def_309 (and .def_144 .def_308)))
(let ((.def_129 (and .s.4.next .def_57)))
(let ((.def_130 (and .def_41 .def_129)))
(let ((.def_131 (and .def_45 .def_130)))
(let ((.def_122 (and .s.3 .def_121)))
(let ((.def_123 (and .def_20 .def_122)))
(let ((.def_108 (<= 4 main.x)))
(let ((.def_127 (and .def_108 .def_123)))
(let ((.def_128 (not .def_127)))
(let ((.def_132 (or .def_128 .def_131)))
(let ((.def_310 (and .def_132 .def_309)))
(let ((.def_109 (not .def_108)))
(let ((.def_124 (and .def_109 .def_123)))
(let ((.def_125 (not .def_124)))
(let ((.def_92 (and .s.4.next .def_91)))
(let ((.def_93 (and .def_41 .def_92)))
(let ((.def_94 (and .def_45 .def_93)))
(let ((.def_126 (or .def_94 .def_125)))
(let ((.def_311 (and .def_126 .def_310)))
(let ((.def_106 (and .s.4 .def_105)))
(let ((.def_118 (and .def_106 .def_108)))
(let ((.def_119 (not .def_118)))
(let ((.def_38 (and .def_36 .s.4.next)))
(let ((.def_42 (and .def_38 .def_41)))
(let ((.def_46 (and .def_42 .def_45)))
(let ((.def_120 (or .def_46 .def_119)))
(let ((.def_312 (and .def_120 .def_311)))
(let ((.def_113 (and .def_35 .def_112)))
(let ((.def_114 (and .s.4.next .def_113)))
(let ((.def_115 (and .def_41 .def_114)))
(let ((.def_116 (and .def_45 .def_115)))
(let ((.def_110 (and .def_106 .def_109)))
(let ((.def_111 (not .def_110)))
(let ((.def_117 (or .def_111 .def_116)))
(let ((.def_313 (and .def_117 .def_312)))
(let ((.def_100 (and .s.4.next .def_99)))
(let ((.def_101 (and .def_41 .def_100)))
(let ((.def_102 (and .def_45 .def_101)))
(let ((.def_96 (and .def_18 .s.4)))
(let ((.def_97 (not .def_96)))
(let ((.def_103 (or .def_97 .def_102)))
(let ((.def_314 (and .def_103 .def_313)))
(let ((.def_87 (and .s.4 .def_86)))
(let ((.def_88 (not .def_87)))
(let ((.def_95 (or .def_88 .def_94)))
(let ((.def_315 (and .def_95 .def_314)))
(let ((.def_77 (and .s.4 .def_76)))
(let ((.def_78 (not .def_77)))
(let ((.def_84 (or .def_78 .def_83)))
(let ((.def_316 (and .def_84 .def_315)))
(let ((.def_65 (and .s.4 .def_64)))
(let ((.def_66 (not .def_65)))
(let ((.def_73 (or .def_66 .def_72)))
(let ((.def_317 (and .def_73 .def_316)))
(let ((.def_50 (and .s.4 .def_49)))
(let ((.def_51 (not .def_50)))
(let ((.def_61 (or .def_51 .def_60)))
(let ((.def_318 (and .def_61 .def_317)))
(let ((.def_26 (and .s.4 .def_25)))
(let ((.def_27 (not .def_26)))
(let ((.def_47 (or .def_27 .def_46)))
(let ((.def_319 (and .def_47 .def_318)))
.def_319))))))))))))))))))))))))))))))))))))))))))))))))))))))))))))))))))))))))))))))))))))))))))))))))))))))))))))))))))))))))))))))))))))))))))))))))))))))))))))))))))))))))))))))))))))))))))))))))))))))))))))))))))))))))))))))))))))))))))))))))))))))))))))))))))))))))))))))))))))))))))))))))))) (state |.s.1.next| |.s.0.next| |.s.2.next| |.s.3.next| |.s.4.next| |main.x.next| |main.y.next|))))
(assert (forall ((|.s.2| Bool) (|.s.0| Bool) (|.s.1| Bool) (|.s.1.next| Bool) (|.s.0.next| Bool) (|.s.2.next| Bool) (|.s.3.next| Bool) (|.s.4.next| Bool) (|main.x.next| Int) (|main.x| Int) (|main.y.next| Int) (|main.y| Int) (|.inputVar.0| Int) (|.s.4| Bool) (|.s.3| Bool)) (=> (state |.s.1| |.s.0| |.s.2| |.s.3| |.s.4| |main.x| |main.y|) (let ((.def_22 (not .s.0)))
(let ((.def_23 (and .s.1 .def_22)))
(let ((.def_24 (and .s.2 .def_23)))
(let ((.def_17 (not .s.3)))
(let ((.def_25 (and .def_17 .def_24)))
(let ((.def_26 (and .s.4 .def_25)))
(let ((.def_27 (not .def_26)))
.def_27))))))))))
(check-sat)
